* #variable= 78 #constraint= 169 #product= 1716 sizeproduct= 78
min: ;
-2 x1 +1 x1 x2 x13 +1 x1 x3 x14 +1 x1 x4 x15 +1 x1 x5 x16 +1 x1 x6 x17 +1 x1 x7 x18 +1 x1 x8 x19 +1 x1 x9 x20 +1 x1 x10 x21 +1 x1 x11 x22 +1 x1 x12 x23 = 0;
+3 x1 +1 x2 x13 -1 x1 x2 x13 +1 x3 x14 -1 x1 x3 x14 +1 x4 x15 -1 x1 x4 x15 +1 x5 x16 -1 x1 x5 x16 +1 x6 x17 -1 x1 x6 x17 +1 x7 x18 -1 x1 x7 x18 +1 x8 x19 -1 x1 x8 x19 +1 x9 x20 -1 x1 x9 x20 +1 x10 x21 -1 x1 x10 x21 +1 x11 x22 -1 x1 x11 x22 +1 x12 x23 -1 x1 x12 x23 = 3;
-2 x2 +1 x2 x1 x13 +1 x2 x3 x24 +1 x2 x4 x25 +1 x2 x5 x26 +1 x2 x6 x27 +1 x2 x7 x28 +1 x2 x8 x29 +1 x2 x9 x30 +1 x2 x10 x31 +1 x2 x11 x32 +1 x2 x12 x33 = 0;
+3 x2 +1 x1 x13 -1 x2 x1 x13 +1 x3 x24 -1 x2 x3 x24 +1 x4 x25 -1 x2 x4 x25 +1 x5 x26 -1 x2 x5 x26 +1 x6 x27 -1 x2 x6 x27 +1 x7 x28 -1 x2 x7 x28 +1 x8 x29 -1 x2 x8 x29 +1 x9 x30 -1 x2 x9 x30 +1 x10 x31 -1 x2 x10 x31 +1 x11 x32 -1 x2 x11 x32 +1 x12 x33 -1 x2 x12 x33 = 3;
-2 x3 +1 x3 x1 x14 +1 x3 x2 x24 +1 x3 x4 x34 +1 x3 x5 x35 +1 x3 x6 x36 +1 x3 x7 x37 +1 x3 x8 x38 +1 x3 x9 x39 +1 x3 x10 x40 +1 x3 x11 x41 +1 x3 x12 x42 = 0;
+3 x3 +1 x1 x14 -1 x3 x1 x14 +1 x2 x24 -1 x3 x2 x24 +1 x4 x34 -1 x3 x4 x34 +1 x5 x35 -1 x3 x5 x35 +1 x6 x36 -1 x3 x6 x36 +1 x7 x37 -1 x3 x7 x37 +1 x8 x38 -1 x3 x8 x38 +1 x9 x39 -1 x3 x9 x39 +1 x10 x40 -1 x3 x10 x40 +1 x11 x41 -1 x3 x11 x41 +1 x12 x42 -1 x3 x12 x42 = 3;
-2 x4 +1 x4 x1 x15 +1 x4 x2 x25 +1 x4 x3 x34 +1 x4 x5 x43 +1 x4 x6 x44 +1 x4 x7 x45 +1 x4 x8 x46 +1 x4 x9 x47 +1 x4 x10 x48 +1 x4 x11 x49 +1 x4 x12 x50 = 0;
+3 x4 +1 x1 x15 -1 x4 x1 x15 +1 x2 x25 -1 x4 x2 x25 +1 x3 x34 -1 x4 x3 x34 +1 x5 x43 -1 x4 x5 x43 +1 x6 x44 -1 x4 x6 x44 +1 x7 x45 -1 x4 x7 x45 +1 x8 x46 -1 x4 x8 x46 +1 x9 x47 -1 x4 x9 x47 +1 x10 x48 -1 x4 x10 x48 +1 x11 x49 -1 x4 x11 x49 +1 x12 x50 -1 x4 x12 x50 = 3;
-2 x5 +1 x5 x1 x16 +1 x5 x2 x26 +1 x5 x3 x35 +1 x5 x4 x43 +1 x5 x6 x51 +1 x5 x7 x52 +1 x5 x8 x53 +1 x5 x9 x54 +1 x5 x10 x55 +1 x5 x11 x56 +1 x5 x12 x57 = 0;
+3 x5 +1 x1 x16 -1 x5 x1 x16 +1 x2 x26 -1 x5 x2 x26 +1 x3 x35 -1 x5 x3 x35 +1 x4 x43 -1 x5 x4 x43 +1 x6 x51 -1 x5 x6 x51 +1 x7 x52 -1 x5 x7 x52 +1 x8 x53 -1 x5 x8 x53 +1 x9 x54 -1 x5 x9 x54 +1 x10 x55 -1 x5 x10 x55 +1 x11 x56 -1 x5 x11 x56 +1 x12 x57 -1 x5 x12 x57 = 3;
-2 x6 +1 x6 x1 x17 +1 x6 x2 x27 +1 x6 x3 x36 +1 x6 x4 x44 +1 x6 x5 x51 +1 x6 x7 x58 +1 x6 x8 x59 +1 x6 x9 x60 +1 x6 x10 x61 +1 x6 x11 x62 +1 x6 x12 x63 = 0;
+3 x6 +1 x1 x17 -1 x6 x1 x17 +1 x2 x27 -1 x6 x2 x27 +1 x3 x36 -1 x6 x3 x36 +1 x4 x44 -1 x6 x4 x44 +1 x5 x51 -1 x6 x5 x51 +1 x7 x58 -1 x6 x7 x58 +1 x8 x59 -1 x6 x8 x59 +1 x9 x60 -1 x6 x9 x60 +1 x10 x61 -1 x6 x10 x61 +1 x11 x62 -1 x6 x11 x62 +1 x12 x63 -1 x6 x12 x63 = 3;
-2 x7 +1 x7 x1 x18 +1 x7 x2 x28 +1 x7 x3 x37 +1 x7 x4 x45 +1 x7 x5 x52 +1 x7 x6 x58 +1 x7 x8 x64 +1 x7 x9 x65 +1 x7 x10 x66 +1 x7 x11 x67 +1 x7 x12 x68 = 0;
+3 x7 +1 x1 x18 -1 x7 x1 x18 +1 x2 x28 -1 x7 x2 x28 +1 x3 x37 -1 x7 x3 x37 +1 x4 x45 -1 x7 x4 x45 +1 x5 x52 -1 x7 x5 x52 +1 x6 x58 -1 x7 x6 x58 +1 x8 x64 -1 x7 x8 x64 +1 x9 x65 -1 x7 x9 x65 +1 x10 x66 -1 x7 x10 x66 +1 x11 x67 -1 x7 x11 x67 +1 x12 x68 -1 x7 x12 x68 = 3;
-2 x8 +1 x8 x1 x19 +1 x8 x2 x29 +1 x8 x3 x38 +1 x8 x4 x46 +1 x8 x5 x53 +1 x8 x6 x59 +1 x8 x7 x64 +1 x8 x9 x69 +1 x8 x10 x70 +1 x8 x11 x71 +1 x8 x12 x72 = 0;
+3 x8 +1 x1 x19 -1 x8 x1 x19 +1 x2 x29 -1 x8 x2 x29 +1 x3 x38 -1 x8 x3 x38 +1 x4 x46 -1 x8 x4 x46 +1 x5 x53 -1 x8 x5 x53 +1 x6 x59 -1 x8 x6 x59 +1 x7 x64 -1 x8 x7 x64 +1 x9 x69 -1 x8 x9 x69 +1 x10 x70 -1 x8 x10 x70 +1 x11 x71 -1 x8 x11 x71 +1 x12 x72 -1 x8 x12 x72 = 3;
-2 x9 +1 x9 x1 x20 +1 x9 x2 x30 +1 x9 x3 x39 +1 x9 x4 x47 +1 x9 x5 x54 +1 x9 x6 x60 +1 x9 x7 x65 +1 x9 x8 x69 +1 x9 x10 x73 +1 x9 x11 x74 +1 x9 x12 x75 = 0;
+3 x9 +1 x1 x20 -1 x9 x1 x20 +1 x2 x30 -1 x9 x2 x30 +1 x3 x39 -1 x9 x3 x39 +1 x4 x47 -1 x9 x4 x47 +1 x5 x54 -1 x9 x5 x54 +1 x6 x60 -1 x9 x6 x60 +1 x7 x65 -1 x9 x7 x65 +1 x8 x69 -1 x9 x8 x69 +1 x10 x73 -1 x9 x10 x73 +1 x11 x74 -1 x9 x11 x74 +1 x12 x75 -1 x9 x12 x75 = 3;
-2 x10 +1 x10 x1 x21 +1 x10 x2 x31 +1 x10 x3 x40 +1 x10 x4 x48 +1 x10 x5 x55 +1 x10 x6 x61 +1 x10 x7 x66 +1 x10 x8 x70 +1 x10 x9 x73 +1 x10 x11 x76 +1 x10 x12 x77 = 0;
+3 x10 +1 x1 x21 -1 x10 x1 x21 +1 x2 x31 -1 x10 x2 x31 +1 x3 x40 -1 x10 x3 x40 +1 x4 x48 -1 x10 x4 x48 +1 x5 x55 -1 x10 x5 x55 +1 x6 x61 -1 x10 x6 x61 +1 x7 x66 -1 x10 x7 x66 +1 x8 x70 -1 x10 x8 x70 +1 x9 x73 -1 x10 x9 x73 +1 x11 x76 -1 x10 x11 x76 +1 x12 x77 -1 x10 x12 x77 = 3;
-2 x11 +1 x11 x1 x22 +1 x11 x2 x32 +1 x11 x3 x41 +1 x11 x4 x49 +1 x11 x5 x56 +1 x11 x6 x62 +1 x11 x7 x67 +1 x11 x8 x71 +1 x11 x9 x74 +1 x11 x10 x76 +1 x11 x12 x78 = 0;
+3 x11 +1 x1 x22 -1 x11 x1 x22 +1 x2 x32 -1 x11 x2 x32 +1 x3 x41 -1 x11 x3 x41 +1 x4 x49 -1 x11 x4 x49 +1 x5 x56 -1 x11 x5 x56 +1 x6 x62 -1 x11 x6 x62 +1 x7 x67 -1 x11 x7 x67 +1 x8 x71 -1 x11 x8 x71 +1 x9 x74 -1 x11 x9 x74 +1 x10 x76 -1 x11 x10 x76 +1 x12 x78 -1 x11 x12 x78 = 3;
-2 x12 +1 x12 x1 x23 +1 x12 x2 x33 +1 x12 x3 x42 +1 x12 x4 x50 +1 x12 x5 x57 +1 x12 x6 x63 +1 x12 x7 x68 +1 x12 x8 x72 +1 x12 x9 x75 +1 x12 x10 x77 +1 x12 x11 x78 = 0;
+3 x12 +1 x1 x23 -1 x12 x1 x23 +1 x2 x33 -1 x12 x2 x33 +1 x3 x42 -1 x12 x3 x42 +1 x4 x50 -1 x12 x4 x50 +1 x5 x57 -1 x12 x5 x57 +1 x6 x63 -1 x12 x6 x63 +1 x7 x68 -1 x12 x7 x68 +1 x8 x72 -1 x12 x8 x72 +1 x9 x75 -1 x12 x9 x75 +1 x10 x77 -1 x12 x10 x77 +1 x11 x78 -1 x12 x11 x78 = 3;
-2 x13 +1 x13 x1 x2 +1 x13 x14 x24 +1 x13 x15 x25 +1 x13 x16 x26 +1 x13 x17 x27 +1 x13 x18 x28 +1 x13 x19 x29 +1 x13 x20 x30 +1 x13 x21 x31 +1 x13 x22 x32 +1 x13 x23 x33 = 0;
+3 x13 +1 x1 x2 -1 x13 x1 x2 +1 x14 x24 -1 x13 x14 x24 +1 x15 x25 -1 x13 x15 x25 +1 x16 x26 -1 x13 x16 x26 +1 x17 x27 -1 x13 x17 x27 +1 x18 x28 -1 x13 x18 x28 +1 x19 x29 -1 x13 x19 x29 +1 x20 x30 -1 x13 x20 x30 +1 x21 x31 -1 x13 x21 x31 +1 x22 x32 -1 x13 x22 x32 +1 x23 x33 -1 x13 x23 x33 = 3;
-2 x14 +1 x14 x1 x3 +1 x14 x13 x24 +1 x14 x15 x34 +1 x14 x16 x35 +1 x14 x17 x36 +1 x14 x18 x37 +1 x14 x19 x38 +1 x14 x20 x39 +1 x14 x21 x40 +1 x14 x22 x41 +1 x14 x23 x42 = 0;
+3 x14 +1 x1 x3 -1 x14 x1 x3 +1 x13 x24 -1 x14 x13 x24 +1 x15 x34 -1 x14 x15 x34 +1 x16 x35 -1 x14 x16 x35 +1 x17 x36 -1 x14 x17 x36 +1 x18 x37 -1 x14 x18 x37 +1 x19 x38 -1 x14 x19 x38 +1 x20 x39 -1 x14 x20 x39 +1 x21 x40 -1 x14 x21 x40 +1 x22 x41 -1 x14 x22 x41 +1 x23 x42 -1 x14 x23 x42 = 3;
-2 x15 +1 x15 x1 x4 +1 x15 x13 x25 +1 x15 x14 x34 +1 x15 x16 x43 +1 x15 x17 x44 +1 x15 x18 x45 +1 x15 x19 x46 +1 x15 x20 x47 +1 x15 x21 x48 +1 x15 x22 x49 +1 x15 x23 x50 = 0;
+3 x15 +1 x1 x4 -1 x15 x1 x4 +1 x13 x25 -1 x15 x13 x25 +1 x14 x34 -1 x15 x14 x34 +1 x16 x43 -1 x15 x16 x43 +1 x17 x44 -1 x15 x17 x44 +1 x18 x45 -1 x15 x18 x45 +1 x19 x46 -1 x15 x19 x46 +1 x20 x47 -1 x15 x20 x47 +1 x21 x48 -1 x15 x21 x48 +1 x22 x49 -1 x15 x22 x49 +1 x23 x50 -1 x15 x23 x50 = 3;
-2 x16 +1 x16 x1 x5 +1 x16 x13 x26 +1 x16 x14 x35 +1 x16 x15 x43 +1 x16 x17 x51 +1 x16 x18 x52 +1 x16 x19 x53 +1 x16 x20 x54 +1 x16 x21 x55 +1 x16 x22 x56 +1 x16 x23 x57 = 0;
+3 x16 +1 x1 x5 -1 x16 x1 x5 +1 x13 x26 -1 x16 x13 x26 +1 x14 x35 -1 x16 x14 x35 +1 x15 x43 -1 x16 x15 x43 +1 x17 x51 -1 x16 x17 x51 +1 x18 x52 -1 x16 x18 x52 +1 x19 x53 -1 x16 x19 x53 +1 x20 x54 -1 x16 x20 x54 +1 x21 x55 -1 x16 x21 x55 +1 x22 x56 -1 x16 x22 x56 +1 x23 x57 -1 x16 x23 x57 = 3;
-2 x17 +1 x17 x1 x6 +1 x17 x13 x27 +1 x17 x14 x36 +1 x17 x15 x44 +1 x17 x16 x51 +1 x17 x18 x58 +1 x17 x19 x59 +1 x17 x20 x60 +1 x17 x21 x61 +1 x17 x22 x62 +1 x17 x23 x63 = 0;
+3 x17 +1 x1 x6 -1 x17 x1 x6 +1 x13 x27 -1 x17 x13 x27 +1 x14 x36 -1 x17 x14 x36 +1 x15 x44 -1 x17 x15 x44 +1 x16 x51 -1 x17 x16 x51 +1 x18 x58 -1 x17 x18 x58 +1 x19 x59 -1 x17 x19 x59 +1 x20 x60 -1 x17 x20 x60 +1 x21 x61 -1 x17 x21 x61 +1 x22 x62 -1 x17 x22 x62 +1 x23 x63 -1 x17 x23 x63 = 3;
-2 x18 +1 x18 x1 x7 +1 x18 x13 x28 +1 x18 x14 x37 +1 x18 x15 x45 +1 x18 x16 x52 +1 x18 x17 x58 +1 x18 x19 x64 +1 x18 x20 x65 +1 x18 x21 x66 +1 x18 x22 x67 +1 x18 x23 x68 = 0;
+3 x18 +1 x1 x7 -1 x18 x1 x7 +1 x13 x28 -1 x18 x13 x28 +1 x14 x37 -1 x18 x14 x37 +1 x15 x45 -1 x18 x15 x45 +1 x16 x52 -1 x18 x16 x52 +1 x17 x58 -1 x18 x17 x58 +1 x19 x64 -1 x18 x19 x64 +1 x20 x65 -1 x18 x20 x65 +1 x21 x66 -1 x18 x21 x66 +1 x22 x67 -1 x18 x22 x67 +1 x23 x68 -1 x18 x23 x68 = 3;
-2 x19 +1 x19 x1 x8 +1 x19 x13 x29 +1 x19 x14 x38 +1 x19 x15 x46 +1 x19 x16 x53 +1 x19 x17 x59 +1 x19 x18 x64 +1 x19 x20 x69 +1 x19 x21 x70 +1 x19 x22 x71 +1 x19 x23 x72 = 0;
+3 x19 +1 x1 x8 -1 x19 x1 x8 +1 x13 x29 -1 x19 x13 x29 +1 x14 x38 -1 x19 x14 x38 +1 x15 x46 -1 x19 x15 x46 +1 x16 x53 -1 x19 x16 x53 +1 x17 x59 -1 x19 x17 x59 +1 x18 x64 -1 x19 x18 x64 +1 x20 x69 -1 x19 x20 x69 +1 x21 x70 -1 x19 x21 x70 +1 x22 x71 -1 x19 x22 x71 +1 x23 x72 -1 x19 x23 x72 = 3;
-2 x20 +1 x20 x1 x9 +1 x20 x13 x30 +1 x20 x14 x39 +1 x20 x15 x47 +1 x20 x16 x54 +1 x20 x17 x60 +1 x20 x18 x65 +1 x20 x19 x69 +1 x20 x21 x73 +1 x20 x22 x74 +1 x20 x23 x75 = 0;
+3 x20 +1 x1 x9 -1 x20 x1 x9 +1 x13 x30 -1 x20 x13 x30 +1 x14 x39 -1 x20 x14 x39 +1 x15 x47 -1 x20 x15 x47 +1 x16 x54 -1 x20 x16 x54 +1 x17 x60 -1 x20 x17 x60 +1 x18 x65 -1 x20 x18 x65 +1 x19 x69 -1 x20 x19 x69 +1 x21 x73 -1 x20 x21 x73 +1 x22 x74 -1 x20 x22 x74 +1 x23 x75 -1 x20 x23 x75 = 3;
-2 x21 +1 x21 x1 x10 +1 x21 x13 x31 +1 x21 x14 x40 +1 x21 x15 x48 +1 x21 x16 x55 +1 x21 x17 x61 +1 x21 x18 x66 +1 x21 x19 x70 +1 x21 x20 x73 +1 x21 x22 x76 +1 x21 x23 x77 = 0;
+3 x21 +1 x1 x10 -1 x21 x1 x10 +1 x13 x31 -1 x21 x13 x31 +1 x14 x40 -1 x21 x14 x40 +1 x15 x48 -1 x21 x15 x48 +1 x16 x55 -1 x21 x16 x55 +1 x17 x61 -1 x21 x17 x61 +1 x18 x66 -1 x21 x18 x66 +1 x19 x70 -1 x21 x19 x70 +1 x20 x73 -1 x21 x20 x73 +1 x22 x76 -1 x21 x22 x76 +1 x23 x77 -1 x21 x23 x77 = 3;
-2 x22 +1 x22 x1 x11 +1 x22 x13 x32 +1 x22 x14 x41 +1 x22 x15 x49 +1 x22 x16 x56 +1 x22 x17 x62 +1 x22 x18 x67 +1 x22 x19 x71 +1 x22 x20 x74 +1 x22 x21 x76 +1 x22 x23 x78 = 0;
+3 x22 +1 x1 x11 -1 x22 x1 x11 +1 x13 x32 -1 x22 x13 x32 +1 x14 x41 -1 x22 x14 x41 +1 x15 x49 -1 x22 x15 x49 +1 x16 x56 -1 x22 x16 x56 +1 x17 x62 -1 x22 x17 x62 +1 x18 x67 -1 x22 x18 x67 +1 x19 x71 -1 x22 x19 x71 +1 x20 x74 -1 x22 x20 x74 +1 x21 x76 -1 x22 x21 x76 +1 x23 x78 -1 x22 x23 x78 = 3;
-2 x23 +1 x23 x1 x12 +1 x23 x13 x33 +1 x23 x14 x42 +1 x23 x15 x50 +1 x23 x16 x57 +1 x23 x17 x63 +1 x23 x18 x68 +1 x23 x19 x72 +1 x23 x20 x75 +1 x23 x21 x77 +1 x23 x22 x78 = 0;
+3 x23 +1 x1 x12 -1 x23 x1 x12 +1 x13 x33 -1 x23 x13 x33 +1 x14 x42 -1 x23 x14 x42 +1 x15 x50 -1 x23 x15 x50 +1 x16 x57 -1 x23 x16 x57 +1 x17 x63 -1 x23 x17 x63 +1 x18 x68 -1 x23 x18 x68 +1 x19 x72 -1 x23 x19 x72 +1 x20 x75 -1 x23 x20 x75 +1 x21 x77 -1 x23 x21 x77 +1 x22 x78 -1 x23 x22 x78 = 3;
-2 x24 +1 x24 x2 x3 +1 x24 x13 x14 +1 x24 x25 x34 +1 x24 x26 x35 +1 x24 x27 x36 +1 x24 x28 x37 +1 x24 x29 x38 +1 x24 x30 x39 +1 x24 x31 x40 +1 x24 x32 x41 +1 x24 x33 x42 = 0;
+3 x24 +1 x2 x3 -1 x24 x2 x3 +1 x13 x14 -1 x24 x13 x14 +1 x25 x34 -1 x24 x25 x34 +1 x26 x35 -1 x24 x26 x35 +1 x27 x36 -1 x24 x27 x36 +1 x28 x37 -1 x24 x28 x37 +1 x29 x38 -1 x24 x29 x38 +1 x30 x39 -1 x24 x30 x39 +1 x31 x40 -1 x24 x31 x40 +1 x32 x41 -1 x24 x32 x41 +1 x33 x42 -1 x24 x33 x42 = 3;
-2 x25 +1 x25 x2 x4 +1 x25 x13 x15 +1 x25 x24 x34 +1 x25 x26 x43 +1 x25 x27 x44 +1 x25 x28 x45 +1 x25 x29 x46 +1 x25 x30 x47 +1 x25 x31 x48 +1 x25 x32 x49 +1 x25 x33 x50 = 0;
+3 x25 +1 x2 x4 -1 x25 x2 x4 +1 x13 x15 -1 x25 x13 x15 +1 x24 x34 -1 x25 x24 x34 +1 x26 x43 -1 x25 x26 x43 +1 x27 x44 -1 x25 x27 x44 +1 x28 x45 -1 x25 x28 x45 +1 x29 x46 -1 x25 x29 x46 +1 x30 x47 -1 x25 x30 x47 +1 x31 x48 -1 x25 x31 x48 +1 x32 x49 -1 x25 x32 x49 +1 x33 x50 -1 x25 x33 x50 = 3;
-2 x26 +1 x26 x2 x5 +1 x26 x13 x16 +1 x26 x24 x35 +1 x26 x25 x43 +1 x26 x27 x51 +1 x26 x28 x52 +1 x26 x29 x53 +1 x26 x30 x54 +1 x26 x31 x55 +1 x26 x32 x56 +1 x26 x33 x57 = 0;
+3 x26 +1 x2 x5 -1 x26 x2 x5 +1 x13 x16 -1 x26 x13 x16 +1 x24 x35 -1 x26 x24 x35 +1 x25 x43 -1 x26 x25 x43 +1 x27 x51 -1 x26 x27 x51 +1 x28 x52 -1 x26 x28 x52 +1 x29 x53 -1 x26 x29 x53 +1 x30 x54 -1 x26 x30 x54 +1 x31 x55 -1 x26 x31 x55 +1 x32 x56 -1 x26 x32 x56 +1 x33 x57 -1 x26 x33 x57 = 3;
-2 x27 +1 x27 x2 x6 +1 x27 x13 x17 +1 x27 x24 x36 +1 x27 x25 x44 +1 x27 x26 x51 +1 x27 x28 x58 +1 x27 x29 x59 +1 x27 x30 x60 +1 x27 x31 x61 +1 x27 x32 x62 +1 x27 x33 x63 = 0;
+3 x27 +1 x2 x6 -1 x27 x2 x6 +1 x13 x17 -1 x27 x13 x17 +1 x24 x36 -1 x27 x24 x36 +1 x25 x44 -1 x27 x25 x44 +1 x26 x51 -1 x27 x26 x51 +1 x28 x58 -1 x27 x28 x58 +1 x29 x59 -1 x27 x29 x59 +1 x30 x60 -1 x27 x30 x60 +1 x31 x61 -1 x27 x31 x61 +1 x32 x62 -1 x27 x32 x62 +1 x33 x63 -1 x27 x33 x63 = 3;
-2 x28 +1 x28 x2 x7 +1 x28 x13 x18 +1 x28 x24 x37 +1 x28 x25 x45 +1 x28 x26 x52 +1 x28 x27 x58 +1 x28 x29 x64 +1 x28 x30 x65 +1 x28 x31 x66 +1 x28 x32 x67 +1 x28 x33 x68 = 0;
+3 x28 +1 x2 x7 -1 x28 x2 x7 +1 x13 x18 -1 x28 x13 x18 +1 x24 x37 -1 x28 x24 x37 +1 x25 x45 -1 x28 x25 x45 +1 x26 x52 -1 x28 x26 x52 +1 x27 x58 -1 x28 x27 x58 +1 x29 x64 -1 x28 x29 x64 +1 x30 x65 -1 x28 x30 x65 +1 x31 x66 -1 x28 x31 x66 +1 x32 x67 -1 x28 x32 x67 +1 x33 x68 -1 x28 x33 x68 = 3;
-2 x29 +1 x29 x2 x8 +1 x29 x13 x19 +1 x29 x24 x38 +1 x29 x25 x46 +1 x29 x26 x53 +1 x29 x27 x59 +1 x29 x28 x64 +1 x29 x30 x69 +1 x29 x31 x70 +1 x29 x32 x71 +1 x29 x33 x72 = 0;
+3 x29 +1 x2 x8 -1 x29 x2 x8 +1 x13 x19 -1 x29 x13 x19 +1 x24 x38 -1 x29 x24 x38 +1 x25 x46 -1 x29 x25 x46 +1 x26 x53 -1 x29 x26 x53 +1 x27 x59 -1 x29 x27 x59 +1 x28 x64 -1 x29 x28 x64 +1 x30 x69 -1 x29 x30 x69 +1 x31 x70 -1 x29 x31 x70 +1 x32 x71 -1 x29 x32 x71 +1 x33 x72 -1 x29 x33 x72 = 3;
-2 x30 +1 x30 x2 x9 +1 x30 x13 x20 +1 x30 x24 x39 +1 x30 x25 x47 +1 x30 x26 x54 +1 x30 x27 x60 +1 x30 x28 x65 +1 x30 x29 x69 +1 x30 x31 x73 +1 x30 x32 x74 +1 x30 x33 x75 = 0;
+3 x30 +1 x2 x9 -1 x30 x2 x9 +1 x13 x20 -1 x30 x13 x20 +1 x24 x39 -1 x30 x24 x39 +1 x25 x47 -1 x30 x25 x47 +1 x26 x54 -1 x30 x26 x54 +1 x27 x60 -1 x30 x27 x60 +1 x28 x65 -1 x30 x28 x65 +1 x29 x69 -1 x30 x29 x69 +1 x31 x73 -1 x30 x31 x73 +1 x32 x74 -1 x30 x32 x74 +1 x33 x75 -1 x30 x33 x75 = 3;
-2 x31 +1 x31 x2 x10 +1 x31 x13 x21 +1 x31 x24 x40 +1 x31 x25 x48 +1 x31 x26 x55 +1 x31 x27 x61 +1 x31 x28 x66 +1 x31 x29 x70 +1 x31 x30 x73 +1 x31 x32 x76 +1 x31 x33 x77 = 0;
+3 x31 +1 x2 x10 -1 x31 x2 x10 +1 x13 x21 -1 x31 x13 x21 +1 x24 x40 -1 x31 x24 x40 +1 x25 x48 -1 x31 x25 x48 +1 x26 x55 -1 x31 x26 x55 +1 x27 x61 -1 x31 x27 x61 +1 x28 x66 -1 x31 x28 x66 +1 x29 x70 -1 x31 x29 x70 +1 x30 x73 -1 x31 x30 x73 +1 x32 x76 -1 x31 x32 x76 +1 x33 x77 -1 x31 x33 x77 = 3;
-2 x32 +1 x32 x2 x11 +1 x32 x13 x22 +1 x32 x24 x41 +1 x32 x25 x49 +1 x32 x26 x56 +1 x32 x27 x62 +1 x32 x28 x67 +1 x32 x29 x71 +1 x32 x30 x74 +1 x32 x31 x76 +1 x32 x33 x78 = 0;
+3 x32 +1 x2 x11 -1 x32 x2 x11 +1 x13 x22 -1 x32 x13 x22 +1 x24 x41 -1 x32 x24 x41 +1 x25 x49 -1 x32 x25 x49 +1 x26 x56 -1 x32 x26 x56 +1 x27 x62 -1 x32 x27 x62 +1 x28 x67 -1 x32 x28 x67 +1 x29 x71 -1 x32 x29 x71 +1 x30 x74 -1 x32 x30 x74 +1 x31 x76 -1 x32 x31 x76 +1 x33 x78 -1 x32 x33 x78 = 3;
-2 x33 +1 x33 x2 x12 +1 x33 x13 x23 +1 x33 x24 x42 +1 x33 x25 x50 +1 x33 x26 x57 +1 x33 x27 x63 +1 x33 x28 x68 +1 x33 x29 x72 +1 x33 x30 x75 +1 x33 x31 x77 +1 x33 x32 x78 = 0;
+3 x33 +1 x2 x12 -1 x33 x2 x12 +1 x13 x23 -1 x33 x13 x23 +1 x24 x42 -1 x33 x24 x42 +1 x25 x50 -1 x33 x25 x50 +1 x26 x57 -1 x33 x26 x57 +1 x27 x63 -1 x33 x27 x63 +1 x28 x68 -1 x33 x28 x68 +1 x29 x72 -1 x33 x29 x72 +1 x30 x75 -1 x33 x30 x75 +1 x31 x77 -1 x33 x31 x77 +1 x32 x78 -1 x33 x32 x78 = 3;
-2 x34 +1 x34 x3 x4 +1 x34 x14 x15 +1 x34 x24 x25 +1 x34 x35 x43 +1 x34 x36 x44 +1 x34 x37 x45 +1 x34 x38 x46 +1 x34 x39 x47 +1 x34 x40 x48 +1 x34 x41 x49 +1 x34 x42 x50 = 0;
+3 x34 +1 x3 x4 -1 x34 x3 x4 +1 x14 x15 -1 x34 x14 x15 +1 x24 x25 -1 x34 x24 x25 +1 x35 x43 -1 x34 x35 x43 +1 x36 x44 -1 x34 x36 x44 +1 x37 x45 -1 x34 x37 x45 +1 x38 x46 -1 x34 x38 x46 +1 x39 x47 -1 x34 x39 x47 +1 x40 x48 -1 x34 x40 x48 +1 x41 x49 -1 x34 x41 x49 +1 x42 x50 -1 x34 x42 x50 = 3;
-2 x35 +1 x35 x3 x5 +1 x35 x14 x16 +1 x35 x24 x26 +1 x35 x34 x43 +1 x35 x36 x51 +1 x35 x37 x52 +1 x35 x38 x53 +1 x35 x39 x54 +1 x35 x40 x55 +1 x35 x41 x56 +1 x35 x42 x57 = 0;
+3 x35 +1 x3 x5 -1 x35 x3 x5 +1 x14 x16 -1 x35 x14 x16 +1 x24 x26 -1 x35 x24 x26 +1 x34 x43 -1 x35 x34 x43 +1 x36 x51 -1 x35 x36 x51 +1 x37 x52 -1 x35 x37 x52 +1 x38 x53 -1 x35 x38 x53 +1 x39 x54 -1 x35 x39 x54 +1 x40 x55 -1 x35 x40 x55 +1 x41 x56 -1 x35 x41 x56 +1 x42 x57 -1 x35 x42 x57 = 3;
-2 x36 +1 x36 x3 x6 +1 x36 x14 x17 +1 x36 x24 x27 +1 x36 x34 x44 +1 x36 x35 x51 +1 x36 x37 x58 +1 x36 x38 x59 +1 x36 x39 x60 +1 x36 x40 x61 +1 x36 x41 x62 +1 x36 x42 x63 = 0;
+3 x36 +1 x3 x6 -1 x36 x3 x6 +1 x14 x17 -1 x36 x14 x17 +1 x24 x27 -1 x36 x24 x27 +1 x34 x44 -1 x36 x34 x44 +1 x35 x51 -1 x36 x35 x51 +1 x37 x58 -1 x36 x37 x58 +1 x38 x59 -1 x36 x38 x59 +1 x39 x60 -1 x36 x39 x60 +1 x40 x61 -1 x36 x40 x61 +1 x41 x62 -1 x36 x41 x62 +1 x42 x63 -1 x36 x42 x63 = 3;
-2 x37 +1 x37 x3 x7 +1 x37 x14 x18 +1 x37 x24 x28 +1 x37 x34 x45 +1 x37 x35 x52 +1 x37 x36 x58 +1 x37 x38 x64 +1 x37 x39 x65 +1 x37 x40 x66 +1 x37 x41 x67 +1 x37 x42 x68 = 0;
+3 x37 +1 x3 x7 -1 x37 x3 x7 +1 x14 x18 -1 x37 x14 x18 +1 x24 x28 -1 x37 x24 x28 +1 x34 x45 -1 x37 x34 x45 +1 x35 x52 -1 x37 x35 x52 +1 x36 x58 -1 x37 x36 x58 +1 x38 x64 -1 x37 x38 x64 +1 x39 x65 -1 x37 x39 x65 +1 x40 x66 -1 x37 x40 x66 +1 x41 x67 -1 x37 x41 x67 +1 x42 x68 -1 x37 x42 x68 = 3;
-2 x38 +1 x38 x3 x8 +1 x38 x14 x19 +1 x38 x24 x29 +1 x38 x34 x46 +1 x38 x35 x53 +1 x38 x36 x59 +1 x38 x37 x64 +1 x38 x39 x69 +1 x38 x40 x70 +1 x38 x41 x71 +1 x38 x42 x72 = 0;
+3 x38 +1 x3 x8 -1 x38 x3 x8 +1 x14 x19 -1 x38 x14 x19 +1 x24 x29 -1 x38 x24 x29 +1 x34 x46 -1 x38 x34 x46 +1 x35 x53 -1 x38 x35 x53 +1 x36 x59 -1 x38 x36 x59 +1 x37 x64 -1 x38 x37 x64 +1 x39 x69 -1 x38 x39 x69 +1 x40 x70 -1 x38 x40 x70 +1 x41 x71 -1 x38 x41 x71 +1 x42 x72 -1 x38 x42 x72 = 3;
-2 x39 +1 x39 x3 x9 +1 x39 x14 x20 +1 x39 x24 x30 +1 x39 x34 x47 +1 x39 x35 x54 +1 x39 x36 x60 +1 x39 x37 x65 +1 x39 x38 x69 +1 x39 x40 x73 +1 x39 x41 x74 +1 x39 x42 x75 = 0;
+3 x39 +1 x3 x9 -1 x39 x3 x9 +1 x14 x20 -1 x39 x14 x20 +1 x24 x30 -1 x39 x24 x30 +1 x34 x47 -1 x39 x34 x47 +1 x35 x54 -1 x39 x35 x54 +1 x36 x60 -1 x39 x36 x60 +1 x37 x65 -1 x39 x37 x65 +1 x38 x69 -1 x39 x38 x69 +1 x40 x73 -1 x39 x40 x73 +1 x41 x74 -1 x39 x41 x74 +1 x42 x75 -1 x39 x42 x75 = 3;
-2 x40 +1 x40 x3 x10 +1 x40 x14 x21 +1 x40 x24 x31 +1 x40 x34 x48 +1 x40 x35 x55 +1 x40 x36 x61 +1 x40 x37 x66 +1 x40 x38 x70 +1 x40 x39 x73 +1 x40 x41 x76 +1 x40 x42 x77 = 0;
+3 x40 +1 x3 x10 -1 x40 x3 x10 +1 x14 x21 -1 x40 x14 x21 +1 x24 x31 -1 x40 x24 x31 +1 x34 x48 -1 x40 x34 x48 +1 x35 x55 -1 x40 x35 x55 +1 x36 x61 -1 x40 x36 x61 +1 x37 x66 -1 x40 x37 x66 +1 x38 x70 -1 x40 x38 x70 +1 x39 x73 -1 x40 x39 x73 +1 x41 x76 -1 x40 x41 x76 +1 x42 x77 -1 x40 x42 x77 = 3;
-2 x41 +1 x41 x3 x11 +1 x41 x14 x22 +1 x41 x24 x32 +1 x41 x34 x49 +1 x41 x35 x56 +1 x41 x36 x62 +1 x41 x37 x67 +1 x41 x38 x71 +1 x41 x39 x74 +1 x41 x40 x76 +1 x41 x42 x78 = 0;
+3 x41 +1 x3 x11 -1 x41 x3 x11 +1 x14 x22 -1 x41 x14 x22 +1 x24 x32 -1 x41 x24 x32 +1 x34 x49 -1 x41 x34 x49 +1 x35 x56 -1 x41 x35 x56 +1 x36 x62 -1 x41 x36 x62 +1 x37 x67 -1 x41 x37 x67 +1 x38 x71 -1 x41 x38 x71 +1 x39 x74 -1 x41 x39 x74 +1 x40 x76 -1 x41 x40 x76 +1 x42 x78 -1 x41 x42 x78 = 3;
-2 x42 +1 x42 x3 x12 +1 x42 x14 x23 +1 x42 x24 x33 +1 x42 x34 x50 +1 x42 x35 x57 +1 x42 x36 x63 +1 x42 x37 x68 +1 x42 x38 x72 +1 x42 x39 x75 +1 x42 x40 x77 +1 x42 x41 x78 = 0;
+3 x42 +1 x3 x12 -1 x42 x3 x12 +1 x14 x23 -1 x42 x14 x23 +1 x24 x33 -1 x42 x24 x33 +1 x34 x50 -1 x42 x34 x50 +1 x35 x57 -1 x42 x35 x57 +1 x36 x63 -1 x42 x36 x63 +1 x37 x68 -1 x42 x37 x68 +1 x38 x72 -1 x42 x38 x72 +1 x39 x75 -1 x42 x39 x75 +1 x40 x77 -1 x42 x40 x77 +1 x41 x78 -1 x42 x41 x78 = 3;
-2 x43 +1 x43 x4 x5 +1 x43 x15 x16 +1 x43 x25 x26 +1 x43 x34 x35 +1 x43 x44 x51 +1 x43 x45 x52 +1 x43 x46 x53 +1 x43 x47 x54 +1 x43 x48 x55 +1 x43 x49 x56 +1 x43 x50 x57 = 0;
+3 x43 +1 x4 x5 -1 x43 x4 x5 +1 x15 x16 -1 x43 x15 x16 +1 x25 x26 -1 x43 x25 x26 +1 x34 x35 -1 x43 x34 x35 +1 x44 x51 -1 x43 x44 x51 +1 x45 x52 -1 x43 x45 x52 +1 x46 x53 -1 x43 x46 x53 +1 x47 x54 -1 x43 x47 x54 +1 x48 x55 -1 x43 x48 x55 +1 x49 x56 -1 x43 x49 x56 +1 x50 x57 -1 x43 x50 x57 = 3;
-2 x44 +1 x44 x4 x6 +1 x44 x15 x17 +1 x44 x25 x27 +1 x44 x34 x36 +1 x44 x43 x51 +1 x44 x45 x58 +1 x44 x46 x59 +1 x44 x47 x60 +1 x44 x48 x61 +1 x44 x49 x62 +1 x44 x50 x63 = 0;
+3 x44 +1 x4 x6 -1 x44 x4 x6 +1 x15 x17 -1 x44 x15 x17 +1 x25 x27 -1 x44 x25 x27 +1 x34 x36 -1 x44 x34 x36 +1 x43 x51 -1 x44 x43 x51 +1 x45 x58 -1 x44 x45 x58 +1 x46 x59 -1 x44 x46 x59 +1 x47 x60 -1 x44 x47 x60 +1 x48 x61 -1 x44 x48 x61 +1 x49 x62 -1 x44 x49 x62 +1 x50 x63 -1 x44 x50 x63 = 3;
-2 x45 +1 x45 x4 x7 +1 x45 x15 x18 +1 x45 x25 x28 +1 x45 x34 x37 +1 x45 x43 x52 +1 x45 x44 x58 +1 x45 x46 x64 +1 x45 x47 x65 +1 x45 x48 x66 +1 x45 x49 x67 +1 x45 x50 x68 = 0;
+3 x45 +1 x4 x7 -1 x45 x4 x7 +1 x15 x18 -1 x45 x15 x18 +1 x25 x28 -1 x45 x25 x28 +1 x34 x37 -1 x45 x34 x37 +1 x43 x52 -1 x45 x43 x52 +1 x44 x58 -1 x45 x44 x58 +1 x46 x64 -1 x45 x46 x64 +1 x47 x65 -1 x45 x47 x65 +1 x48 x66 -1 x45 x48 x66 +1 x49 x67 -1 x45 x49 x67 +1 x50 x68 -1 x45 x50 x68 = 3;
-2 x46 +1 x46 x4 x8 +1 x46 x15 x19 +1 x46 x25 x29 +1 x46 x34 x38 +1 x46 x43 x53 +1 x46 x44 x59 +1 x46 x45 x64 +1 x46 x47 x69 +1 x46 x48 x70 +1 x46 x49 x71 +1 x46 x50 x72 = 0;
+3 x46 +1 x4 x8 -1 x46 x4 x8 +1 x15 x19 -1 x46 x15 x19 +1 x25 x29 -1 x46 x25 x29 +1 x34 x38 -1 x46 x34 x38 +1 x43 x53 -1 x46 x43 x53 +1 x44 x59 -1 x46 x44 x59 +1 x45 x64 -1 x46 x45 x64 +1 x47 x69 -1 x46 x47 x69 +1 x48 x70 -1 x46 x48 x70 +1 x49 x71 -1 x46 x49 x71 +1 x50 x72 -1 x46 x50 x72 = 3;
-2 x47 +1 x47 x4 x9 +1 x47 x15 x20 +1 x47 x25 x30 +1 x47 x34 x39 +1 x47 x43 x54 +1 x47 x44 x60 +1 x47 x45 x65 +1 x47 x46 x69 +1 x47 x48 x73 +1 x47 x49 x74 +1 x47 x50 x75 = 0;
+3 x47 +1 x4 x9 -1 x47 x4 x9 +1 x15 x20 -1 x47 x15 x20 +1 x25 x30 -1 x47 x25 x30 +1 x34 x39 -1 x47 x34 x39 +1 x43 x54 -1 x47 x43 x54 +1 x44 x60 -1 x47 x44 x60 +1 x45 x65 -1 x47 x45 x65 +1 x46 x69 -1 x47 x46 x69 +1 x48 x73 -1 x47 x48 x73 +1 x49 x74 -1 x47 x49 x74 +1 x50 x75 -1 x47 x50 x75 = 3;
-2 x48 +1 x48 x4 x10 +1 x48 x15 x21 +1 x48 x25 x31 +1 x48 x34 x40 +1 x48 x43 x55 +1 x48 x44 x61 +1 x48 x45 x66 +1 x48 x46 x70 +1 x48 x47 x73 +1 x48 x49 x76 +1 x48 x50 x77 = 0;
+3 x48 +1 x4 x10 -1 x48 x4 x10 +1 x15 x21 -1 x48 x15 x21 +1 x25 x31 -1 x48 x25 x31 +1 x34 x40 -1 x48 x34 x40 +1 x43 x55 -1 x48 x43 x55 +1 x44 x61 -1 x48 x44 x61 +1 x45 x66 -1 x48 x45 x66 +1 x46 x70 -1 x48 x46 x70 +1 x47 x73 -1 x48 x47 x73 +1 x49 x76 -1 x48 x49 x76 +1 x50 x77 -1 x48 x50 x77 = 3;
-2 x49 +1 x49 x4 x11 +1 x49 x15 x22 +1 x49 x25 x32 +1 x49 x34 x41 +1 x49 x43 x56 +1 x49 x44 x62 +1 x49 x45 x67 +1 x49 x46 x71 +1 x49 x47 x74 +1 x49 x48 x76 +1 x49 x50 x78 = 0;
+3 x49 +1 x4 x11 -1 x49 x4 x11 +1 x15 x22 -1 x49 x15 x22 +1 x25 x32 -1 x49 x25 x32 +1 x34 x41 -1 x49 x34 x41 +1 x43 x56 -1 x49 x43 x56 +1 x44 x62 -1 x49 x44 x62 +1 x45 x67 -1 x49 x45 x67 +1 x46 x71 -1 x49 x46 x71 +1 x47 x74 -1 x49 x47 x74 +1 x48 x76 -1 x49 x48 x76 +1 x50 x78 -1 x49 x50 x78 = 3;
-2 x50 +1 x50 x4 x12 +1 x50 x15 x23 +1 x50 x25 x33 +1 x50 x34 x42 +1 x50 x43 x57 +1 x50 x44 x63 +1 x50 x45 x68 +1 x50 x46 x72 +1 x50 x47 x75 +1 x50 x48 x77 +1 x50 x49 x78 = 0;
+3 x50 +1 x4 x12 -1 x50 x4 x12 +1 x15 x23 -1 x50 x15 x23 +1 x25 x33 -1 x50 x25 x33 +1 x34 x42 -1 x50 x34 x42 +1 x43 x57 -1 x50 x43 x57 +1 x44 x63 -1 x50 x44 x63 +1 x45 x68 -1 x50 x45 x68 +1 x46 x72 -1 x50 x46 x72 +1 x47 x75 -1 x50 x47 x75 +1 x48 x77 -1 x50 x48 x77 +1 x49 x78 -1 x50 x49 x78 = 3;
-2 x51 +1 x51 x5 x6 +1 x51 x16 x17 +1 x51 x26 x27 +1 x51 x35 x36 +1 x51 x43 x44 +1 x51 x52 x58 +1 x51 x53 x59 +1 x51 x54 x60 +1 x51 x55 x61 +1 x51 x56 x62 +1 x51 x57 x63 = 0;
+3 x51 +1 x5 x6 -1 x51 x5 x6 +1 x16 x17 -1 x51 x16 x17 +1 x26 x27 -1 x51 x26 x27 +1 x35 x36 -1 x51 x35 x36 +1 x43 x44 -1 x51 x43 x44 +1 x52 x58 -1 x51 x52 x58 +1 x53 x59 -1 x51 x53 x59 +1 x54 x60 -1 x51 x54 x60 +1 x55 x61 -1 x51 x55 x61 +1 x56 x62 -1 x51 x56 x62 +1 x57 x63 -1 x51 x57 x63 = 3;
-2 x52 +1 x52 x5 x7 +1 x52 x16 x18 +1 x52 x26 x28 +1 x52 x35 x37 +1 x52 x43 x45 +1 x52 x51 x58 +1 x52 x53 x64 +1 x52 x54 x65 +1 x52 x55 x66 +1 x52 x56 x67 +1 x52 x57 x68 = 0;
+3 x52 +1 x5 x7 -1 x52 x5 x7 +1 x16 x18 -1 x52 x16 x18 +1 x26 x28 -1 x52 x26 x28 +1 x35 x37 -1 x52 x35 x37 +1 x43 x45 -1 x52 x43 x45 +1 x51 x58 -1 x52 x51 x58 +1 x53 x64 -1 x52 x53 x64 +1 x54 x65 -1 x52 x54 x65 +1 x55 x66 -1 x52 x55 x66 +1 x56 x67 -1 x52 x56 x67 +1 x57 x68 -1 x52 x57 x68 = 3;
-2 x53 +1 x53 x5 x8 +1 x53 x16 x19 +1 x53 x26 x29 +1 x53 x35 x38 +1 x53 x43 x46 +1 x53 x51 x59 +1 x53 x52 x64 +1 x53 x54 x69 +1 x53 x55 x70 +1 x53 x56 x71 +1 x53 x57 x72 = 0;
+3 x53 +1 x5 x8 -1 x53 x5 x8 +1 x16 x19 -1 x53 x16 x19 +1 x26 x29 -1 x53 x26 x29 +1 x35 x38 -1 x53 x35 x38 +1 x43 x46 -1 x53 x43 x46 +1 x51 x59 -1 x53 x51 x59 +1 x52 x64 -1 x53 x52 x64 +1 x54 x69 -1 x53 x54 x69 +1 x55 x70 -1 x53 x55 x70 +1 x56 x71 -1 x53 x56 x71 +1 x57 x72 -1 x53 x57 x72 = 3;
-2 x54 +1 x54 x5 x9 +1 x54 x16 x20 +1 x54 x26 x30 +1 x54 x35 x39 +1 x54 x43 x47 +1 x54 x51 x60 +1 x54 x52 x65 +1 x54 x53 x69 +1 x54 x55 x73 +1 x54 x56 x74 +1 x54 x57 x75 = 0;
+3 x54 +1 x5 x9 -1 x54 x5 x9 +1 x16 x20 -1 x54 x16 x20 +1 x26 x30 -1 x54 x26 x30 +1 x35 x39 -1 x54 x35 x39 +1 x43 x47 -1 x54 x43 x47 +1 x51 x60 -1 x54 x51 x60 +1 x52 x65 -1 x54 x52 x65 +1 x53 x69 -1 x54 x53 x69 +1 x55 x73 -1 x54 x55 x73 +1 x56 x74 -1 x54 x56 x74 +1 x57 x75 -1 x54 x57 x75 = 3;
-2 x55 +1 x55 x5 x10 +1 x55 x16 x21 +1 x55 x26 x31 +1 x55 x35 x40 +1 x55 x43 x48 +1 x55 x51 x61 +1 x55 x52 x66 +1 x55 x53 x70 +1 x55 x54 x73 +1 x55 x56 x76 +1 x55 x57 x77 = 0;
+3 x55 +1 x5 x10 -1 x55 x5 x10 +1 x16 x21 -1 x55 x16 x21 +1 x26 x31 -1 x55 x26 x31 +1 x35 x40 -1 x55 x35 x40 +1 x43 x48 -1 x55 x43 x48 +1 x51 x61 -1 x55 x51 x61 +1 x52 x66 -1 x55 x52 x66 +1 x53 x70 -1 x55 x53 x70 +1 x54 x73 -1 x55 x54 x73 +1 x56 x76 -1 x55 x56 x76 +1 x57 x77 -1 x55 x57 x77 = 3;
-2 x56 +1 x56 x5 x11 +1 x56 x16 x22 +1 x56 x26 x32 +1 x56 x35 x41 +1 x56 x43 x49 +1 x56 x51 x62 +1 x56 x52 x67 +1 x56 x53 x71 +1 x56 x54 x74 +1 x56 x55 x76 +1 x56 x57 x78 = 0;
+3 x56 +1 x5 x11 -1 x56 x5 x11 +1 x16 x22 -1 x56 x16 x22 +1 x26 x32 -1 x56 x26 x32 +1 x35 x41 -1 x56 x35 x41 +1 x43 x49 -1 x56 x43 x49 +1 x51 x62 -1 x56 x51 x62 +1 x52 x67 -1 x56 x52 x67 +1 x53 x71 -1 x56 x53 x71 +1 x54 x74 -1 x56 x54 x74 +1 x55 x76 -1 x56 x55 x76 +1 x57 x78 -1 x56 x57 x78 = 3;
-2 x57 +1 x57 x5 x12 +1 x57 x16 x23 +1 x57 x26 x33 +1 x57 x35 x42 +1 x57 x43 x50 +1 x57 x51 x63 +1 x57 x52 x68 +1 x57 x53 x72 +1 x57 x54 x75 +1 x57 x55 x77 +1 x57 x56 x78 = 0;
+3 x57 +1 x5 x12 -1 x57 x5 x12 +1 x16 x23 -1 x57 x16 x23 +1 x26 x33 -1 x57 x26 x33 +1 x35 x42 -1 x57 x35 x42 +1 x43 x50 -1 x57 x43 x50 +1 x51 x63 -1 x57 x51 x63 +1 x52 x68 -1 x57 x52 x68 +1 x53 x72 -1 x57 x53 x72 +1 x54 x75 -1 x57 x54 x75 +1 x55 x77 -1 x57 x55 x77 +1 x56 x78 -1 x57 x56 x78 = 3;
-2 x58 +1 x58 x6 x7 +1 x58 x17 x18 +1 x58 x27 x28 +1 x58 x36 x37 +1 x58 x44 x45 +1 x58 x51 x52 +1 x58 x59 x64 +1 x58 x60 x65 +1 x58 x61 x66 +1 x58 x62 x67 +1 x58 x63 x68 = 0;
+3 x58 +1 x6 x7 -1 x58 x6 x7 +1 x17 x18 -1 x58 x17 x18 +1 x27 x28 -1 x58 x27 x28 +1 x36 x37 -1 x58 x36 x37 +1 x44 x45 -1 x58 x44 x45 +1 x51 x52 -1 x58 x51 x52 +1 x59 x64 -1 x58 x59 x64 +1 x60 x65 -1 x58 x60 x65 +1 x61 x66 -1 x58 x61 x66 +1 x62 x67 -1 x58 x62 x67 +1 x63 x68 -1 x58 x63 x68 = 3;
-2 x59 +1 x59 x6 x8 +1 x59 x17 x19 +1 x59 x27 x29 +1 x59 x36 x38 +1 x59 x44 x46 +1 x59 x51 x53 +1 x59 x58 x64 +1 x59 x60 x69 +1 x59 x61 x70 +1 x59 x62 x71 +1 x59 x63 x72 = 0;
+3 x59 +1 x6 x8 -1 x59 x6 x8 +1 x17 x19 -1 x59 x17 x19 +1 x27 x29 -1 x59 x27 x29 +1 x36 x38 -1 x59 x36 x38 +1 x44 x46 -1 x59 x44 x46 +1 x51 x53 -1 x59 x51 x53 +1 x58 x64 -1 x59 x58 x64 +1 x60 x69 -1 x59 x60 x69 +1 x61 x70 -1 x59 x61 x70 +1 x62 x71 -1 x59 x62 x71 +1 x63 x72 -1 x59 x63 x72 = 3;
-2 x60 +1 x60 x6 x9 +1 x60 x17 x20 +1 x60 x27 x30 +1 x60 x36 x39 +1 x60 x44 x47 +1 x60 x51 x54 +1 x60 x58 x65 +1 x60 x59 x69 +1 x60 x61 x73 +1 x60 x62 x74 +1 x60 x63 x75 = 0;
+3 x60 +1 x6 x9 -1 x60 x6 x9 +1 x17 x20 -1 x60 x17 x20 +1 x27 x30 -1 x60 x27 x30 +1 x36 x39 -1 x60 x36 x39 +1 x44 x47 -1 x60 x44 x47 +1 x51 x54 -1 x60 x51 x54 +1 x58 x65 -1 x60 x58 x65 +1 x59 x69 -1 x60 x59 x69 +1 x61 x73 -1 x60 x61 x73 +1 x62 x74 -1 x60 x62 x74 +1 x63 x75 -1 x60 x63 x75 = 3;
-2 x61 +1 x61 x6 x10 +1 x61 x17 x21 +1 x61 x27 x31 +1 x61 x36 x40 +1 x61 x44 x48 +1 x61 x51 x55 +1 x61 x58 x66 +1 x61 x59 x70 +1 x61 x60 x73 +1 x61 x62 x76 +1 x61 x63 x77 = 0;
+3 x61 +1 x6 x10 -1 x61 x6 x10 +1 x17 x21 -1 x61 x17 x21 +1 x27 x31 -1 x61 x27 x31 +1 x36 x40 -1 x61 x36 x40 +1 x44 x48 -1 x61 x44 x48 +1 x51 x55 -1 x61 x51 x55 +1 x58 x66 -1 x61 x58 x66 +1 x59 x70 -1 x61 x59 x70 +1 x60 x73 -1 x61 x60 x73 +1 x62 x76 -1 x61 x62 x76 +1 x63 x77 -1 x61 x63 x77 = 3;
-2 x62 +1 x62 x6 x11 +1 x62 x17 x22 +1 x62 x27 x32 +1 x62 x36 x41 +1 x62 x44 x49 +1 x62 x51 x56 +1 x62 x58 x67 +1 x62 x59 x71 +1 x62 x60 x74 +1 x62 x61 x76 +1 x62 x63 x78 = 0;
+3 x62 +1 x6 x11 -1 x62 x6 x11 +1 x17 x22 -1 x62 x17 x22 +1 x27 x32 -1 x62 x27 x32 +1 x36 x41 -1 x62 x36 x41 +1 x44 x49 -1 x62 x44 x49 +1 x51 x56 -1 x62 x51 x56 +1 x58 x67 -1 x62 x58 x67 +1 x59 x71 -1 x62 x59 x71 +1 x60 x74 -1 x62 x60 x74 +1 x61 x76 -1 x62 x61 x76 +1 x63 x78 -1 x62 x63 x78 = 3;
-2 x63 +1 x63 x6 x12 +1 x63 x17 x23 +1 x63 x27 x33 +1 x63 x36 x42 +1 x63 x44 x50 +1 x63 x51 x57 +1 x63 x58 x68 +1 x63 x59 x72 +1 x63 x60 x75 +1 x63 x61 x77 +1 x63 x62 x78 = 0;
+3 x63 +1 x6 x12 -1 x63 x6 x12 +1 x17 x23 -1 x63 x17 x23 +1 x27 x33 -1 x63 x27 x33 +1 x36 x42 -1 x63 x36 x42 +1 x44 x50 -1 x63 x44 x50 +1 x51 x57 -1 x63 x51 x57 +1 x58 x68 -1 x63 x58 x68 +1 x59 x72 -1 x63 x59 x72 +1 x60 x75 -1 x63 x60 x75 +1 x61 x77 -1 x63 x61 x77 +1 x62 x78 -1 x63 x62 x78 = 3;
-2 x64 +1 x64 x7 x8 +1 x64 x18 x19 +1 x64 x28 x29 +1 x64 x37 x38 +1 x64 x45 x46 +1 x64 x52 x53 +1 x64 x58 x59 +1 x64 x65 x69 +1 x64 x66 x70 +1 x64 x67 x71 +1 x64 x68 x72 = 0;
+3 x64 +1 x7 x8 -1 x64 x7 x8 +1 x18 x19 -1 x64 x18 x19 +1 x28 x29 -1 x64 x28 x29 +1 x37 x38 -1 x64 x37 x38 +1 x45 x46 -1 x64 x45 x46 +1 x52 x53 -1 x64 x52 x53 +1 x58 x59 -1 x64 x58 x59 +1 x65 x69 -1 x64 x65 x69 +1 x66 x70 -1 x64 x66 x70 +1 x67 x71 -1 x64 x67 x71 +1 x68 x72 -1 x64 x68 x72 = 3;
-2 x65 +1 x65 x7 x9 +1 x65 x18 x20 +1 x65 x28 x30 +1 x65 x37 x39 +1 x65 x45 x47 +1 x65 x52 x54 +1 x65 x58 x60 +1 x65 x64 x69 +1 x65 x66 x73 +1 x65 x67 x74 +1 x65 x68 x75 = 0;
+3 x65 +1 x7 x9 -1 x65 x7 x9 +1 x18 x20 -1 x65 x18 x20 +1 x28 x30 -1 x65 x28 x30 +1 x37 x39 -1 x65 x37 x39 +1 x45 x47 -1 x65 x45 x47 +1 x52 x54 -1 x65 x52 x54 +1 x58 x60 -1 x65 x58 x60 +1 x64 x69 -1 x65 x64 x69 +1 x66 x73 -1 x65 x66 x73 +1 x67 x74 -1 x65 x67 x74 +1 x68 x75 -1 x65 x68 x75 = 3;
-2 x66 +1 x66 x7 x10 +1 x66 x18 x21 +1 x66 x28 x31 +1 x66 x37 x40 +1 x66 x45 x48 +1 x66 x52 x55 +1 x66 x58 x61 +1 x66 x64 x70 +1 x66 x65 x73 +1 x66 x67 x76 +1 x66 x68 x77 = 0;
+3 x66 +1 x7 x10 -1 x66 x7 x10 +1 x18 x21 -1 x66 x18 x21 +1 x28 x31 -1 x66 x28 x31 +1 x37 x40 -1 x66 x37 x40 +1 x45 x48 -1 x66 x45 x48 +1 x52 x55 -1 x66 x52 x55 +1 x58 x61 -1 x66 x58 x61 +1 x64 x70 -1 x66 x64 x70 +1 x65 x73 -1 x66 x65 x73 +1 x67 x76 -1 x66 x67 x76 +1 x68 x77 -1 x66 x68 x77 = 3;
-2 x67 +1 x67 x7 x11 +1 x67 x18 x22 +1 x67 x28 x32 +1 x67 x37 x41 +1 x67 x45 x49 +1 x67 x52 x56 +1 x67 x58 x62 +1 x67 x64 x71 +1 x67 x65 x74 +1 x67 x66 x76 +1 x67 x68 x78 = 0;
+3 x67 +1 x7 x11 -1 x67 x7 x11 +1 x18 x22 -1 x67 x18 x22 +1 x28 x32 -1 x67 x28 x32 +1 x37 x41 -1 x67 x37 x41 +1 x45 x49 -1 x67 x45 x49 +1 x52 x56 -1 x67 x52 x56 +1 x58 x62 -1 x67 x58 x62 +1 x64 x71 -1 x67 x64 x71 +1 x65 x74 -1 x67 x65 x74 +1 x66 x76 -1 x67 x66 x76 +1 x68 x78 -1 x67 x68 x78 = 3;
-2 x68 +1 x68 x7 x12 +1 x68 x18 x23 +1 x68 x28 x33 +1 x68 x37 x42 +1 x68 x45 x50 +1 x68 x52 x57 +1 x68 x58 x63 +1 x68 x64 x72 +1 x68 x65 x75 +1 x68 x66 x77 +1 x68 x67 x78 = 0;
+3 x68 +1 x7 x12 -1 x68 x7 x12 +1 x18 x23 -1 x68 x18 x23 +1 x28 x33 -1 x68 x28 x33 +1 x37 x42 -1 x68 x37 x42 +1 x45 x50 -1 x68 x45 x50 +1 x52 x57 -1 x68 x52 x57 +1 x58 x63 -1 x68 x58 x63 +1 x64 x72 -1 x68 x64 x72 +1 x65 x75 -1 x68 x65 x75 +1 x66 x77 -1 x68 x66 x77 +1 x67 x78 -1 x68 x67 x78 = 3;
-2 x69 +1 x69 x8 x9 +1 x69 x19 x20 +1 x69 x29 x30 +1 x69 x38 x39 +1 x69 x46 x47 +1 x69 x53 x54 +1 x69 x59 x60 +1 x69 x64 x65 +1 x69 x70 x73 +1 x69 x71 x74 +1 x69 x72 x75 = 0;
+3 x69 +1 x8 x9 -1 x69 x8 x9 +1 x19 x20 -1 x69 x19 x20 +1 x29 x30 -1 x69 x29 x30 +1 x38 x39 -1 x69 x38 x39 +1 x46 x47 -1 x69 x46 x47 +1 x53 x54 -1 x69 x53 x54 +1 x59 x60 -1 x69 x59 x60 +1 x64 x65 -1 x69 x64 x65 +1 x70 x73 -1 x69 x70 x73 +1 x71 x74 -1 x69 x71 x74 +1 x72 x75 -1 x69 x72 x75 = 3;
-2 x70 +1 x70 x8 x10 +1 x70 x19 x21 +1 x70 x29 x31 +1 x70 x38 x40 +1 x70 x46 x48 +1 x70 x53 x55 +1 x70 x59 x61 +1 x70 x64 x66 +1 x70 x69 x73 +1 x70 x71 x76 +1 x70 x72 x77 = 0;
+3 x70 +1 x8 x10 -1 x70 x8 x10 +1 x19 x21 -1 x70 x19 x21 +1 x29 x31 -1 x70 x29 x31 +1 x38 x40 -1 x70 x38 x40 +1 x46 x48 -1 x70 x46 x48 +1 x53 x55 -1 x70 x53 x55 +1 x59 x61 -1 x70 x59 x61 +1 x64 x66 -1 x70 x64 x66 +1 x69 x73 -1 x70 x69 x73 +1 x71 x76 -1 x70 x71 x76 +1 x72 x77 -1 x70 x72 x77 = 3;
-2 x71 +1 x71 x8 x11 +1 x71 x19 x22 +1 x71 x29 x32 +1 x71 x38 x41 +1 x71 x46 x49 +1 x71 x53 x56 +1 x71 x59 x62 +1 x71 x64 x67 +1 x71 x69 x74 +1 x71 x70 x76 +1 x71 x72 x78 = 0;
+3 x71 +1 x8 x11 -1 x71 x8 x11 +1 x19 x22 -1 x71 x19 x22 +1 x29 x32 -1 x71 x29 x32 +1 x38 x41 -1 x71 x38 x41 +1 x46 x49 -1 x71 x46 x49 +1 x53 x56 -1 x71 x53 x56 +1 x59 x62 -1 x71 x59 x62 +1 x64 x67 -1 x71 x64 x67 +1 x69 x74 -1 x71 x69 x74 +1 x70 x76 -1 x71 x70 x76 +1 x72 x78 -1 x71 x72 x78 = 3;
-2 x72 +1 x72 x8 x12 +1 x72 x19 x23 +1 x72 x29 x33 +1 x72 x38 x42 +1 x72 x46 x50 +1 x72 x53 x57 +1 x72 x59 x63 +1 x72 x64 x68 +1 x72 x69 x75 +1 x72 x70 x77 +1 x72 x71 x78 = 0;
+3 x72 +1 x8 x12 -1 x72 x8 x12 +1 x19 x23 -1 x72 x19 x23 +1 x29 x33 -1 x72 x29 x33 +1 x38 x42 -1 x72 x38 x42 +1 x46 x50 -1 x72 x46 x50 +1 x53 x57 -1 x72 x53 x57 +1 x59 x63 -1 x72 x59 x63 +1 x64 x68 -1 x72 x64 x68 +1 x69 x75 -1 x72 x69 x75 +1 x70 x77 -1 x72 x70 x77 +1 x71 x78 -1 x72 x71 x78 = 3;
-2 x73 +1 x73 x9 x10 +1 x73 x20 x21 +1 x73 x30 x31 +1 x73 x39 x40 +1 x73 x47 x48 +1 x73 x54 x55 +1 x73 x60 x61 +1 x73 x65 x66 +1 x73 x69 x70 +1 x73 x74 x76 +1 x73 x75 x77 = 0;
+3 x73 +1 x9 x10 -1 x73 x9 x10 +1 x20 x21 -1 x73 x20 x21 +1 x30 x31 -1 x73 x30 x31 +1 x39 x40 -1 x73 x39 x40 +1 x47 x48 -1 x73 x47 x48 +1 x54 x55 -1 x73 x54 x55 +1 x60 x61 -1 x73 x60 x61 +1 x65 x66 -1 x73 x65 x66 +1 x69 x70 -1 x73 x69 x70 +1 x74 x76 -1 x73 x74 x76 +1 x75 x77 -1 x73 x75 x77 = 3;
-2 x74 +1 x74 x9 x11 +1 x74 x20 x22 +1 x74 x30 x32 +1 x74 x39 x41 +1 x74 x47 x49 +1 x74 x54 x56 +1 x74 x60 x62 +1 x74 x65 x67 +1 x74 x69 x71 +1 x74 x73 x76 +1 x74 x75 x78 = 0;
+3 x74 +1 x9 x11 -1 x74 x9 x11 +1 x20 x22 -1 x74 x20 x22 +1 x30 x32 -1 x74 x30 x32 +1 x39 x41 -1 x74 x39 x41 +1 x47 x49 -1 x74 x47 x49 +1 x54 x56 -1 x74 x54 x56 +1 x60 x62 -1 x74 x60 x62 +1 x65 x67 -1 x74 x65 x67 +1 x69 x71 -1 x74 x69 x71 +1 x73 x76 -1 x74 x73 x76 +1 x75 x78 -1 x74 x75 x78 = 3;
-2 x75 +1 x75 x9 x12 +1 x75 x20 x23 +1 x75 x30 x33 +1 x75 x39 x42 +1 x75 x47 x50 +1 x75 x54 x57 +1 x75 x60 x63 +1 x75 x65 x68 +1 x75 x69 x72 +1 x75 x73 x77 +1 x75 x74 x78 = 0;
+3 x75 +1 x9 x12 -1 x75 x9 x12 +1 x20 x23 -1 x75 x20 x23 +1 x30 x33 -1 x75 x30 x33 +1 x39 x42 -1 x75 x39 x42 +1 x47 x50 -1 x75 x47 x50 +1 x54 x57 -1 x75 x54 x57 +1 x60 x63 -1 x75 x60 x63 +1 x65 x68 -1 x75 x65 x68 +1 x69 x72 -1 x75 x69 x72 +1 x73 x77 -1 x75 x73 x77 +1 x74 x78 -1 x75 x74 x78 = 3;
-2 x76 +1 x76 x10 x11 +1 x76 x21 x22 +1 x76 x31 x32 +1 x76 x40 x41 +1 x76 x48 x49 +1 x76 x55 x56 +1 x76 x61 x62 +1 x76 x66 x67 +1 x76 x70 x71 +1 x76 x73 x74 +1 x76 x77 x78 = 0;
+3 x76 +1 x10 x11 -1 x76 x10 x11 +1 x21 x22 -1 x76 x21 x22 +1 x31 x32 -1 x76 x31 x32 +1 x40 x41 -1 x76 x40 x41 +1 x48 x49 -1 x76 x48 x49 +1 x55 x56 -1 x76 x55 x56 +1 x61 x62 -1 x76 x61 x62 +1 x66 x67 -1 x76 x66 x67 +1 x70 x71 -1 x76 x70 x71 +1 x73 x74 -1 x76 x73 x74 +1 x77 x78 -1 x76 x77 x78 = 3;
-2 x77 +1 x77 x10 x12 +1 x77 x21 x23 +1 x77 x31 x33 +1 x77 x40 x42 +1 x77 x48 x50 +1 x77 x55 x57 +1 x77 x61 x63 +1 x77 x66 x68 +1 x77 x70 x72 +1 x77 x73 x75 +1 x77 x76 x78 = 0;
+3 x77 +1 x10 x12 -1 x77 x10 x12 +1 x21 x23 -1 x77 x21 x23 +1 x31 x33 -1 x77 x31 x33 +1 x40 x42 -1 x77 x40 x42 +1 x48 x50 -1 x77 x48 x50 +1 x55 x57 -1 x77 x55 x57 +1 x61 x63 -1 x77 x61 x63 +1 x66 x68 -1 x77 x66 x68 +1 x70 x72 -1 x77 x70 x72 +1 x73 x75 -1 x77 x73 x75 +1 x76 x78 -1 x77 x76 x78 = 3;
-2 x78 +1 x78 x11 x12 +1 x78 x22 x23 +1 x78 x32 x33 +1 x78 x41 x42 +1 x78 x49 x50 +1 x78 x56 x57 +1 x78 x62 x63 +1 x78 x67 x68 +1 x78 x71 x72 +1 x78 x74 x75 +1 x78 x76 x77 = 0;
+3 x78 +1 x11 x12 -1 x78 x11 x12 +1 x22 x23 -1 x78 x22 x23 +1 x32 x33 -1 x78 x32 x33 +1 x41 x42 -1 x78 x41 x42 +1 x49 x50 -1 x78 x49 x50 +1 x56 x57 -1 x78 x56 x57 +1 x62 x63 -1 x78 x62 x63 +1 x67 x68 -1 x78 x67 x68 +1 x71 x72 -1 x78 x71 x72 +1 x74 x75 -1 x78 x74 x75 +1 x76 x77 -1 x78 x76 x77 = 3;
+1 x1 +1 x2 +1 x3 +1 x4 +1 x5 +1 x6 +1 x7 +1 x8 +1 x9 +1 x10 +1 x11 +1 x12 = 6;
+1 x1 +1 x13 +1 x14 +1 x15 +1 x16 +1 x17 +1 x18 +1 x19 +1 x20 +1 x21 +1 x22 +1 x23 = 6;
+1 x2 +1 x13 +1 x24 +1 x25 +1 x26 +1 x27 +1 x28 +1 x29 +1 x30 +1 x31 +1 x32 +1 x33 = 6;
+1 x3 +1 x14 +1 x24 +1 x34 +1 x35 +1 x36 +1 x37 +1 x38 +1 x39 +1 x40 +1 x41 +1 x42 = 6;
+1 x4 +1 x15 +1 x25 +1 x34 +1 x43 +1 x44 +1 x45 +1 x46 +1 x47 +1 x48 +1 x49 +1 x50 = 6;
+1 x5 +1 x16 +1 x26 +1 x35 +1 x43 +1 x51 +1 x52 +1 x53 +1 x54 +1 x55 +1 x56 +1 x57 = 6;
+1 x6 +1 x17 +1 x27 +1 x36 +1 x44 +1 x51 +1 x58 +1 x59 +1 x60 +1 x61 +1 x62 +1 x63 = 6;
+1 x7 +1 x18 +1 x28 +1 x37 +1 x45 +1 x52 +1 x58 +1 x64 +1 x65 +1 x66 +1 x67 +1 x68 = 6;
+1 x8 +1 x19 +1 x29 +1 x38 +1 x46 +1 x53 +1 x59 +1 x64 +1 x69 +1 x70 +1 x71 +1 x72 = 6;
+1 x9 +1 x20 +1 x30 +1 x39 +1 x47 +1 x54 +1 x60 +1 x65 +1 x69 +1 x73 +1 x74 +1 x75 = 6;
+1 x10 +1 x21 +1 x31 +1 x40 +1 x48 +1 x55 +1 x61 +1 x66 +1 x70 +1 x73 +1 x76 +1 x77 = 6;
+1 x11 +1 x22 +1 x32 +1 x41 +1 x49 +1 x56 +1 x62 +1 x67 +1 x71 +1 x74 +1 x76 +1 x78 = 6;
+1 x12 +1 x23 +1 x33 +1 x42 +1 x50 +1 x57 +1 x63 +1 x68 +1 x72 +1 x75 +1 x77 +1 x78 = 6;
